
(set-logic HORN)
(define-fun Z_444 () Int 0)
(define-fun S_155 ((x Int)) Int (+ x 1))
(declare-fun diseqInt (Int Int) Bool)
(declare-fun unS_165 (Int Int) Bool)
(declare-fun isZ_155 (Int) Bool)
(declare-fun isS_155 (Int) Bool)
(assert (forall ((x_4318 Int))
	(unS_165 x_4318 (S_155 x_4318))))
(assert (isZ_155 Z_444))
(assert (forall ((x_4320 Int))
	(isS_155 (S_155 x_4320))))
(assert (forall ((x_4321 Int))
	(diseqInt Z_444 (S_155 x_4321))))
(assert (forall ((x_4322 Int))
	(diseqInt (S_155 x_4322) Z_444)))
(assert (forall ((x_4323 Int) (x_4324 Int))
	(=> (diseqInt x_4323 x_4324) (diseqInt (S_155 x_4323) (S_155 x_4324)))))
(declare-fun add_82 (Int Int Int) Bool)
(declare-fun minus_82 (Int Int Int) Bool)
(declare-fun le_82 (Int Int) Bool)
(declare-fun ge_82 (Int Int) Bool)
(declare-fun lt_82 (Int Int) Bool)
(declare-fun gt_82 (Int Int) Bool)
(declare-fun mult_82 (Int Int Int) Bool)
(declare-fun div_82 (Int Int Int) Bool)
(declare-fun mod_82 (Int Int Int) Bool)
(assert (forall ((y_356 Int))
	(add_82 y_356 Z_444 y_356)))
(assert (forall ((x_4302 Int) (y_356 Int) (r_85 Int))
	(=> (add_82 r_85 x_4302 y_356) (add_82 (S_155 r_85) (S_155 x_4302) y_356))))
(assert (forall ((y_356 Int))
	(minus_82 Z_444 Z_444 y_356)))
(assert (forall ((x_4302 Int) (y_356 Int) (r_85 Int))
	(=> (minus_82 r_85 x_4302 y_356) (minus_82 (S_155 r_85) (S_155 x_4302) y_356))))
(assert (forall ((y_356 Int))
	(le_82 Z_444 y_356)))
(assert (forall ((x_4302 Int) (y_356 Int))
	(=> (le_82 x_4302 y_356) (le_82 (S_155 x_4302) (S_155 y_356)))))
(assert (forall ((y_356 Int))
	(ge_82 y_356 Z_444)))
(assert (forall ((x_4302 Int) (y_356 Int))
	(=> (ge_82 x_4302 y_356) (ge_82 (S_155 x_4302) (S_155 y_356)))))
(assert (forall ((y_356 Int))
	(lt_82 Z_444 (S_155 y_356))))
(assert (forall ((x_4302 Int) (y_356 Int))
	(=> (lt_82 x_4302 y_356) (lt_82 (S_155 x_4302) (S_155 y_356)))))
(assert (forall ((y_356 Int))
	(gt_82 (S_155 y_356) Z_444)))
(assert (forall ((x_4302 Int) (y_356 Int))
	(=> (gt_82 x_4302 y_356) (gt_82 (S_155 x_4302) (S_155 y_356)))))
(assert (forall ((y_356 Int))
	(mult_82 Z_444 Z_444 y_356)))
(assert (forall ((x_4302 Int) (y_356 Int) (r_85 Int) (z_445 Int))
	(=> (and (mult_82 r_85 x_4302 y_356) (add_82 z_445 r_85 y_356)) (mult_82 z_445 (S_155 x_4302) y_356))))
(assert (forall ((x_4302 Int) (y_356 Int))
	(=> (lt_82 x_4302 y_356) (div_82 Z_444 x_4302 y_356))))
(assert (forall ((x_4302 Int) (y_356 Int) (r_85 Int) (z_445 Int))
	(=> (and (ge_82 x_4302 y_356) (minus_82 z_445 x_4302 y_356) (div_82 r_85 z_445 y_356)) (div_82 (S_155 r_85) x_4302 y_356))))
(assert (forall ((x_4302 Int) (y_356 Int))
	(=> (lt_82 x_4302 y_356) (mod_82 x_4302 x_4302 y_356))))
(assert (forall ((x_4302 Int) (y_356 Int) (r_85 Int) (z_445 Int))
	(=> (and (ge_82 x_4302 y_356) (minus_82 z_445 x_4302 y_356) (mod_82 r_85 z_445 y_356)) (mod_82 r_85 x_4302 y_356))))
(declare-datatypes ((list_67 0)) (((nil_68) (cons_67 (head_134 Int) (tail_134 list_67)))))
(declare-fun diseqlist_67 (list_67 list_67) Bool)
(declare-fun head_135 (Int list_67) Bool)
(declare-fun tail_135 (list_67 list_67) Bool)
(declare-fun isnil_68 (list_67) Bool)
(declare-fun iscons_67 (list_67) Bool)
(assert (forall ((x_4304 Int) (x_4305 list_67))
	(head_135 x_4304 (cons_67 x_4304 x_4305))))
(assert (forall ((x_4304 Int) (x_4305 list_67))
	(tail_135 x_4305 (cons_67 x_4304 x_4305))))
(assert (isnil_68 nil_68))
(assert (forall ((x_4307 Int) (x_4308 list_67))
	(iscons_67 (cons_67 x_4307 x_4308))))
(assert (forall ((x_4309 Int) (x_4310 list_67))
	(diseqlist_67 nil_68 (cons_67 x_4309 x_4310))))
(assert (forall ((x_4311 Int) (x_4312 list_67))
	(diseqlist_67 (cons_67 x_4311 x_4312) nil_68)))
(assert (forall ((x_4313 Int) (x_4314 list_67) (x_4315 Int) (x_4316 list_67))
	(=> (diseqInt x_4313 x_4315) (diseqlist_67 (cons_67 x_4313 x_4314) (cons_67 x_4315 x_4316)))))
(assert (forall ((x_4313 Int) (x_4314 list_67) (x_4315 Int) (x_4316 list_67))
	(=> (diseqlist_67 x_4314 x_4316) (diseqlist_67 (cons_67 x_4313 x_4314) (cons_67 x_4315 x_4316)))))
(declare-fun x_4295 (list_67 list_67 list_67) Bool)
(assert (forall ((x_4298 list_67) (z_443 Int) (xs_125 list_67) (y_355 list_67))
	(=> (x_4295 x_4298 xs_125 y_355) (x_4295 (cons_67 z_443 x_4298) (cons_67 z_443 xs_125) y_355))))
(assert (forall ((x_4299 list_67))
	(x_4295 x_4299 nil_68 x_4299)))
(assert (forall ((x_4300 list_67) (xs_126 list_67) (ys_31 list_67) (zs_2 list_67))
	(=> (and true (diseqlist_67 xs_126 ys_31) (x_4295 x_4300 xs_126 zs_2) (x_4295 x_4300 ys_31 zs_2)) false)))
(check-sat)
